(declare-sort A 0)
(declare-const b A)
(declare-const a A)
(declare-fun g (A) A)
(declare-fun f (A) A)
(assert (or (= (f (g b)) a) (= (f (f b)) a)))
(assert (= (g b) a))
(assert (= (f b) a))
(assert (or (not (= (g b) (g b))) (not (= (f a) a))))